6819.0
6, 10, 23, 25, 37, 70, 78, 112, 136, 161, 192, 211, 227, 231, 245, 269, 292, 349, 373, 379, 399, 426, 463, 469, 473, 493, 573, 596, 598, 599, 603, 643, 657, 658, 669, 672, 697, 707, 732, 736, 743, 770, 775, 792, 807, 830, 833, 845, 914, 917, 937, 945, 967